\ENCODING=ISO-8859-1
\Problem name: 

Minimize
 obj: 10 i_0_0_0 + 5 i_1_0_0 + 9 i_0_1_0 + 4.5 i_1_1_0 + 8.1 i_0_2_0
      + 4.05 i_1_2_0 + 7.29 i_0_3_0 + 3.645 i_1_3_0 + 6.561 i_0_4_0
      + 3.2805 i_1_4_0 + 5.9049 i_0_5_0 + 2.95245 i_1_5_0 + 5 p_0_0_0
      + 5 p_1_0_0 + 4.5 p_0_1_0 + 4.5 p_1_1_0 + 4.05 p_0_2_0 + 4.05 p_1_2_0
      + 3.645 p_0_3_0 + 3.645 p_1_3_0 + 3.2805 p_0_4_0 + 3.2805 p_1_4_0
      + 2.95245 p_0_5_0 + 2.95245 p_1_5_0 + 100 b_0_0_0 + 90 b_0_1_0
      + 81 b_0_2_0 + 72.9 b_0_3_0 + 65.61 b_0_4_0 + 590.49 b_0_5_0
Subject To
 Flow000:     q_p_t_s_0_0_0 - i_0_0_0 + b_0_0_0  = 5
 Flow010:     q_p_t_s_0_0_0 + q_p_t_s_0_1_0 - i_0_1_0 + b_0_1_0  = 15
 Flow020:     q_p_t_s_0_0_0 + q_p_t_s_0_1_0 + q_p_t_s_0_2_0 - i_0_2_0 + b_0_2_0
               = 30
 Flow030:     q_p_t_s_0_0_0 + q_p_t_s_0_1_0 + q_p_t_s_0_2_0 + q_p_t_s_0_3_0
              - i_0_3_0 + b_0_3_0  = 40
 Flow040:     q_p_t_s_0_0_0 + q_p_t_s_0_1_0 + q_p_t_s_0_2_0 + q_p_t_s_0_3_0
              + q_p_t_s_0_4_0 - i_0_4_0 + b_0_4_0  = 50
 Flow050:     q_p_t_s_0_0_0 + q_p_t_s_0_1_0 + q_p_t_s_0_2_0 + q_p_t_s_0_3_0
              + q_p_t_s_0_4_0 + q_p_t_s_0_5_0 - i_0_5_0 + b_0_5_0  = 60
 Flow100:     - q_p_t_s_0_0_0 - i_1_0_0  = -10
 Flow110:     - q_p_t_s_0_0_0 + q_p_t_s_1_0_0 - q_p_t_s_0_1_0 - i_1_1_0  = -10
 Flow120:     - q_p_t_s_0_0_0 + q_p_t_s_1_0_0 - q_p_t_s_0_1_0 + q_p_t_s_1_1_0
              - q_p_t_s_0_2_0 - i_1_2_0  = -10
 Flow130:     - q_p_t_s_0_0_0 + q_p_t_s_1_0_0 - q_p_t_s_0_1_0 + q_p_t_s_1_1_0
              - q_p_t_s_0_2_0 + q_p_t_s_1_2_0 - q_p_t_s_0_3_0 - i_1_3_0  = -10
 Flow140:     - q_p_t_s_0_0_0 + q_p_t_s_1_0_0 - q_p_t_s_0_1_0 + q_p_t_s_1_1_0
              - q_p_t_s_0_2_0 + q_p_t_s_1_2_0 - q_p_t_s_0_3_0 + q_p_t_s_1_3_0
              - q_p_t_s_0_4_0 - i_1_4_0  = -10
 Flow150:     - q_p_t_s_0_0_0 + q_p_t_s_1_0_0 - q_p_t_s_0_1_0 + q_p_t_s_1_1_0
              - q_p_t_s_0_2_0 + q_p_t_s_1_2_0 - q_p_t_s_0_3_0 + q_p_t_s_1_3_0
              - q_p_t_s_0_4_0 + q_p_t_s_1_4_0 - q_p_t_s_0_5_0 - i_1_5_0  = -10
 c13:         - q_p_t_s_0_0_0 + 15 p_0_0_0 >= 0
 c14:         - q_p_t_s_1_0_0 + 50 p_1_0_0 >= 0
 c15:         - q_p_t_s_0_1_0 + 15 p_0_1_0 >= 0
 c16:         - q_p_t_s_1_1_0 + 50 p_1_1_0 >= 0
 c17:         - q_p_t_s_0_2_0 + 15 p_0_2_0 >= 0
 c18:         - q_p_t_s_1_2_0 + 50 p_1_2_0 >= 0
 c19:         - q_p_t_s_0_3_0 + 15 p_0_3_0 >= 0
 c20:         - q_p_t_s_1_3_0 + 50 p_1_3_0 >= 0
 c21:         - q_p_t_s_0_4_0 + 15 p_0_4_0 >= 0
 c22:         - q_p_t_s_1_4_0 + 50 p_1_4_0 >= 0
 c23:         - q_p_t_s_0_5_0 + 15 p_0_5_0 >= 0
 c24:         - q_p_t_s_1_5_0 + 50 p_1_5_0 >= 0
 c25:         q_p_t_s_0_0_0 <= 15
 c26:         q_p_t_s_0_1_0 <= 15
 c27:         q_p_t_s_0_2_0 <= 15
 c28:         q_p_t_s_0_3_0 <= 15
 c29:         q_p_t_s_0_4_0 <= 15
 c30:         q_p_t_s_0_5_0 <= 15
 c31:         q_p_t_s_1_0_0 <= 50
 c32:         q_p_t_s_1_1_0 <= 50
 c33:         q_p_t_s_1_2_0 <= 50
 c34:         q_p_t_s_1_3_0 <= 50
 c35:         q_p_t_s_1_4_0 <= 50
 c36:         q_p_t_s_1_5_0 <= 50
 Quantity000: q_p_t_s_0_0_0  = 10
 Quantity010: q_p_t_s_0_1_0  = 13
 Quantity020: q_p_t_s_0_2_0  = 12
 Quantity030: q_p_t_s_0_3_0  = 8
 Quantity040: q_p_t_s_0_4_0  = 10
 Quantity050: q_p_t_s_0_5_0  = 10
 Quantity100: q_p_t_s_1_0_0  = 13
 Quantity110: q_p_t_s_1_1_0  = 15
 Quantity120: q_p_t_s_1_2_0  = 7
 Quantity130: q_p_t_s_1_3_0  = 8
 Quantity140: q_p_t_s_1_4_0  = 10
 Quantity150: q_p_t_s_1_5_0  = 0
 c49:         p_0_0_0  = 1
 c50:         p_0_1_0  = 1
 c51:         p_0_2_0  = 1
 c52:         p_0_3_0  = 1
 c53:         p_0_4_0  = 1
 c54:         p_0_5_0  = 1
 c55:         p_1_0_0  = 1
 c56:         p_1_1_0  = 1
 c57:         p_1_2_0  = 1
 c58:         p_1_3_0  = 1
 c59:         p_1_4_0  = 1
 c60:         p_1_5_0  = 0
Bounds
 0 <= p_0_0_0 <= 1
 0 <= p_1_0_0 <= 1
 0 <= p_0_1_0 <= 1
 0 <= p_1_1_0 <= 1
 0 <= p_0_2_0 <= 1
 0 <= p_1_2_0 <= 1
 0 <= p_0_3_0 <= 1
 0 <= p_1_3_0 <= 1
 0 <= p_0_4_0 <= 1
 0 <= p_1_4_0 <= 1
 0 <= p_0_5_0 <= 1
 0 <= p_1_5_0 <= 1
Binaries
 p_0_0_0  p_1_0_0  p_0_1_0  p_1_1_0  p_0_2_0  p_1_2_0  p_0_3_0  p_1_3_0 
 p_0_4_0  p_1_4_0  p_0_5_0  p_1_5_0 
End
